************************************************************************
file with basedata            : md360_.bas
initial value random generator: 1732777653
************************************************************************
projects                      :  1
jobs (incl. supersource/sink ):  22
horizon                       :  166
RESOURCES
  - renewable                 :  2   R
  - nonrenewable              :  2   N
  - doubly constrained        :  0   D
************************************************************************
PROJECT INFORMATION:
pronr.  #jobs rel.date duedate tardcost  MPM-Time
    1     20      0       30       15       30
************************************************************************
PRECEDENCE RELATIONS:
jobnr.    #modes  #successors   successors
   1        1          3           2   3   4
   2        3          3           7  10  16
   3        3          1          11
   4        3          3           5  12  21
   5        3          3           6   7   8
   6        3          3           9  11  13
   7        3          2          15  20
   8        3          3          13  14  16
   9        3          2          14  15
  10        3          3          17  19  21
  11        3          3          14  18  20
  12        3          1          16
  13        3          2          15  17
  14        3          1          19
  15        3          1          18
  16        3          1          18
  17        3          1          20
  18        3          1          19
  19        3          1          22
  20        3          1          22
  21        3          1          22
  22        1          0        
************************************************************************
REQUESTS/DURATIONS:
jobnr. mode duration  R 1  R 2  N 1  N 2
------------------------------------------------------------------------
  1      1     0       0    0    0    0
  2      1     6       4    6    7    9
         2     8       2    4    3    6
         3     8       3    5    2    6
  3      1     2       4    5    9    9
         2     2       4    6   10    6
         3     6       3    3    9    5
  4      1     1      10    6    9    6
         2     6       6    5    8    5
         3     9       6    4    8    1
  5      1     5       6    3    8    4
         2     7       6    3    7    2
         3    10       4    2    4    1
  6      1     6       9    9    6    7
         2     6       8    5    6    8
         3     7       8    3    4    7
  7      1     3       8    2    3    7
         2     6       7    2    2    7
         3     8       7    2    2    6
  8      1     4       4    8    9    9
         2     4       4    5    9   10
         3     7       3    2    7    8
  9      1     6      10    9    8   10
         2     9       5    9    4    6
         3    10       4    9    2    3
 10      1     4       7    5    7    4
         2     5       5    5    7    3
         3    10       5    5    5    3
 11      1     7       7    7    5    6
         2     7       7    6    6    7
         3     9       5    1    4    4
 12      1     2       7    7    6   10
         2     3       7    6    6    8
         3     9       6    5    6    7
 13      1     2       9    9    8    8
         2     6       7    7    6    8
         3     6       7    6    7    8
 14      1     1       7    6    8    6
         2     5       4    6    7    6
         3    10       2    5    6    5
 15      1     2       1    4    2    4
         2     4       1    4    2    3
         3     5       1    3    1    3
 16      1     1       8    5    9    4
         2     3       7    4    6    2
         3     9       4    2    2    1
 17      1     5      10    8    9    3
         2     7       8    8    9    2
         3     7       8    6    8    3
 18      1     4       8    6    6    8
         2     6       8    5    6    5
         3     7       7    2    5    4
 19      1     6       9    7    7    9
         2     8       5    7    5    5
         3    10       5    7    5    4
 20      1     3       5    8   10    7
         2     7       5    4   10    6
         3     9       5    4   10    3
 21      1     2       3    4    8    3
         2     2       5    6    9    2
         3    10       3    4    6    1
 22      1     0       0    0    0    0
************************************************************************
RESOURCEAVAILABILITIES:
  R 1  R 2  N 1  N 2
   28   25  113   96
************************************************************************
MAXIMAL LAGS:
from  to  type  delay
    1   22   ES      0
    1    2   ES      0
    2   22   ES      0
    1    3   ES      0
    3   22   ES      0
    1    4   ES      0
    4   22   ES      0
    1    5   ES      0
    5   22   ES      0
    1    6   ES      0
    6   22   ES      0
    1    7   ES      0
    7   22   ES      0
    1    8   ES      0
    8   22   ES      0
    1    9   ES      0
    9   22   ES      0
    1   10   ES      0
   10   22   ES      0
    1   11   ES      0
   11   22   ES      0
    1   12   ES      0
   12   22   ES      0
    1   13   ES      0
   13   22   ES      0
    1   14   ES      0
   14   22   ES      0
    1   15   ES      0
   15   22   ES      0
    1   16   ES      0
   16   22   ES      0
    1   17   ES      0
   17   22   ES      0
    1   18   ES      0
   18   22   ES      0
    1   19   ES      0
   19   22   ES      0
    1   20   ES      0
   20   22   ES      0
    1   21   ES      0
   21   22   ES      0
    1   22   ES      0
    2    7   SS     -6
    2    7   SE      0
    2    7   ES     10
    2    7   EE     -3
    2   10   SS      7
    2   10   SE      6
    2   10   ES    -10
    2   10   EE     -9
    2   16   SS      7
    2   16   SE     10
    2   16   ES     -8
    2   16   EE     10
    3   11   SS      4
    3   11   SE     -1
    3   11   ES      1
    3   11   EE      2
    4    5   SS     11
    4    5   SE      8
    4    5   ES      9
    4    5   EE     -8
    4   12   SS      4
    4   12   SE     -1
    4   12   ES     11
    4   12   EE    -11
    4   21   SS     -7
    4   21   SE    -10
    4   21   ES     -1
    4   21   EE     -2
    5    6   SS     11
    5    6   SE      8
    5    6   ES      9
    5    6   EE     -6
    5    7   SS      5
    5    7   SE     -5
    5    7   ES    -12
    5    7   EE      9
    5    8   SS      3
    5    8   SE      2
    5    8   ES     -2
    5    8   EE     -2
    6    9   SS      5
    6    9   SE     -8
    6    9   ES    -10
    6    9   EE     -7
    6   11   SS      0
    6   11   SE     -7
    6   11   ES      1
    6   11   EE     -4
    6   13   SS     -6
    6   13   SE      7
    6   13   ES     -1
    6   13   EE      0
    7   15   SS      3
    7   15   SE      8
    7   15   ES      4
    7   15   EE     -4
    7   20   SS     -3
    7   20   SE     11
   20    7   SE      0
    7   20   ES      0
    7   20   EE    -12
    8   13   SS      2
    8   13   SE      5
    8   13   ES      7
    8   13   EE     12
    8   14   SS    -12
    8   14   SE      3
    8   14   ES     -2
    8   14   EE    -10
    8   16   SS      9
    8   16   SE      6
    8   16   ES     10
    8   16   EE      6
    9   14   SS     -9
    9   14   SE      7
    9   14   ES      4
    9   14   EE    -10
    9   15   SS      2
    9   15   SE      3
    9   15   ES     -1
    9   15   EE     -1
   10   17   SS    -10
   10   17   SE     -8
   10   17   ES      6
   10   17   EE      9
   10   19   SS     10
   10   19   SE     -4
   10   19   ES     -3
   10   19   EE     -9
   10   21   SS     -3
   10   21   SE      7
   10   21   ES     12
   10   21   EE     -7
   11   14   SS     -2
   11   14   SE     -6
   11   14   ES      9
   11   14   EE     -9
   11   18   SS      1
   11   18   SE     -4
   11   18   ES      7
   11   18   EE      5
   11   20   SS     -7
   11   20   SE      4
   11   20   ES     12
   11   20   EE      9
   12   16   SS     12
   12   16   SE     -5
   12   16   ES      4
   12   16   EE     12
   13   15   SS      8
   13   15   SE     -2
   13   15   ES      9
   13   15   EE      6
   13   17   SS      3
   13   17   SE     -4
   13   17   ES      2
   13   17   EE      2
   14   19   SS      1
   14   19   SE     -1
   14   19   ES      0
   14   19   EE     12
   15   18   SS     -2
   15   18   SE      6
   15   18   ES    -11
   15   18   EE      3
   16   18   SS    -12
   16   18   SE     -1
   16   18   ES     -2
   16   18   EE     -3
   17   20   SS     11
   17   20   SE      7
   17   20   ES     -4
   17   20   EE      8
   18   19   SS     10
   18   19   SE     -6
   18   19   ES      8
   18   19   EE     -3
************************************************************************
